\ Model MTZ_MODEL
\ LP format - for model browsing. Use MPS format to capture full model detail.
Minimize
  p[0,1] + p[0,2] + p[0,3] + p[0,4] + p[0,5] + p[1,0] + p[1,2] + p[1,3]
   + p[1,4] + p[1,5] + p[2,0] + p[2,1] + p[2,3] + p[2,4] + p[2,5] + p[3,0]
   + p[3,1] + p[3,2] + p[3,4] + p[3,5] + p[4,0] + p[4,1] + p[4,2] + p[4,3]
   + p[4,5] + p[5,0] + p[5,1] + p[5,2] + p[5,3] + p[5,4] + dc[0] + dc[1]
   + dc[2] + dc[3] + dc[4] + dc[5]
Subject To
 p2: p[0,1] - 50.80996586600527 z[0,1] >= 0
 p3: p[0,1] - 64.00808966405921 z[0,1] - dcc[0,1] >= -64.00808966405921
 R2: dcc[0,1] <= 64.00808966405921
 R3: x[0,1,0] - x[1,0,0] + dif[0,1,0] >= 0
 R4: - x[0,1,0] + x[1,0,0] + dif[0,1,0] >= 0
 R5: x[0,1,1] - x[1,0,1] + dif[0,1,1] >= 0
 R6: - x[0,1,1] + x[1,0,1] + dif[0,1,1] >= 0
 p2: p[0,2] - 103.6532788397955 z[0,2] >= 0
 p3: p[0,2] - 114.8306991096146 z[0,2] - dcc[0,2] >= -114.8306991096146
 R9: dcc[0,2] <= 114.8306991096146
 R10: x[0,1,0] - x[2,0,0] + dif[0,2,0] >= 0
 R11: - x[0,1,0] + x[2,0,0] + dif[0,2,0] >= 0
 R12: x[0,1,1] - x[2,0,1] + dif[0,2,1] >= 0
 R13: - x[0,1,1] + x[2,0,1] + dif[0,2,1] >= 0
 p2: p[0,3] - 94.95812839057376 z[0,3] >= 0
 p3: p[0,3] - 102.0258084791149 z[0,3] - dcc[0,3] >= -102.0258084791149
 R16: dcc[0,3] <= 102.0258084791149
 R17: x[0,1,0] - x[3,0,0] + dif[0,3,0] >= 0
 R18: - x[0,1,0] + x[3,0,0] + dif[0,3,0] >= 0
 R19: x[0,1,1] - x[3,0,1] + dif[0,3,1] >= 0
 R20: - x[0,1,1] + x[3,0,1] + dif[0,3,1] >= 0
 p2: p[0,4] - 80.67934794352263 z[0,4] >= 0
 p3: p[0,4] - 90.83320288127197 z[0,4] - dcc[0,4] >= -90.83320288127197
 R23: dcc[0,4] <= 90.83320288127197
 R24: x[0,1,0] - x[4,0,0] + dif[0,4,0] >= 0
 R25: - x[0,1,0] + x[4,0,0] + dif[0,4,0] >= 0
 R26: x[0,1,1] - x[4,0,1] + dif[0,4,1] >= 0
 R27: - x[0,1,1] + x[4,0,1] + dif[0,4,1] >= 0
 p2: p[0,5] - 41.5994690734718 z[0,5] >= 0
 p3: p[0,5] - 47.44841395246582 z[0,5] - dcc[0,5] >= -47.44841395246582
 R30: dcc[0,5] <= 47.44841395246582
 R31: x[0,1,0] - x[5,0,0] + dif[0,5,0] >= 0
 R32: - x[0,1,0] + x[5,0,0] + dif[0,5,0] >= 0
 R33: x[0,1,1] - x[5,0,1] + dif[0,5,1] >= 0
 R34: - x[0,1,1] + x[5,0,1] + dif[0,5,1] >= 0
 p2: p[1,0] - 50.80996586600527 z[1,0] >= 0
 p3: p[1,0] - 64.00808966405921 z[1,0] - dcc[1,0] >= -64.00808966405921
 R37: dcc[1,0] <= 64.00808966405921
 R38: - x[0,0,0] + x[1,1,0] + dif[1,0,0] >= 0
 R39: x[0,0,0] - x[1,1,0] + dif[1,0,0] >= 0
 R40: - x[0,0,1] + x[1,1,1] + dif[1,0,1] >= 0
 R41: x[0,0,1] - x[1,1,1] + dif[1,0,1] >= 0
 p2: p[1,2] - 45.17576064777077 z[1,2] >= 0
 p3: p[1,2] - 58.54196199402148 z[1,2] - dcc[1,2] >= -58.54196199402148
 R44: dcc[1,2] <= 58.54196199402148
 R45: x[1,1,0] - x[2,0,0] + dif[1,2,0] >= 0
 R46: - x[1,1,0] + x[2,0,0] + dif[1,2,0] >= 0
 R47: x[1,1,1] - x[2,0,1] + dif[1,2,1] >= 0
 R48: - x[1,1,1] + x[2,0,1] + dif[1,2,1] >= 0
 p2: p[1,3] - 52.10828651901689 z[1,3] >= 0
 p3: p[1,3] - 61.36474768398956 z[1,3] - dcc[1,3] >= -61.36474768398956
 R51: dcc[1,3] <= 61.36474768398956
 R52: x[1,1,0] - x[3,0,0] + dif[1,3,0] >= 0
 R53: - x[1,1,0] + x[3,0,0] + dif[1,3,0] >= 0
 R54: x[1,1,1] - x[3,0,1] + dif[1,3,1] >= 0
 R55: - x[1,1,1] + x[3,0,1] + dif[1,3,1] >= 0
 p2: p[1,4] - 24.38163546578224 z[1,4] >= 0
 p3: p[1,4] - 36.72427147996311 z[1,4] - dcc[1,4] >= -36.72427147996311
 R58: dcc[1,4] <= 36.72427147996311
 R59: x[1,1,0] - x[4,0,0] + dif[1,4,0] >= 0
 R60: - x[1,1,0] + x[4,0,0] + dif[1,4,0] >= 0
 R61: x[1,1,1] - x[4,0,1] + dif[1,4,1] >= 0
 R62: - x[1,1,1] + x[4,0,1] + dif[1,4,1] >= 0
 p2: p[1,5] - 11.00610731559148 z[1,5] >= 0
 p3: p[1,5] - 19.04383327101704 z[1,5] - dcc[1,5] >= -19.04383327101704
 R65: dcc[1,5] <= 19.04383327101704
 R66: x[1,1,0] - x[5,0,0] + dif[1,5,0] >= 0
 R67: - x[1,1,0] + x[5,0,0] + dif[1,5,0] >= 0
 R68: x[1,1,1] - x[5,0,1] + dif[1,5,1] >= 0
 R69: - x[1,1,1] + x[5,0,1] + dif[1,5,1] >= 0
 p2: p[2,0] - 103.6532788397955 z[2,0] >= 0
 p3: p[2,0] - 114.8306991096146 z[2,0] - dcc[2,0] >= -114.8306991096146
 R72: dcc[2,0] <= 114.8306991096146
 R73: - x[0,0,0] + x[2,1,0] + dif[2,0,0] >= 0
 R74: x[0,0,0] - x[2,1,0] + dif[2,0,0] >= 0
 R75: - x[0,0,1] + x[2,1,1] + dif[2,0,1] >= 0
 R76: x[0,0,1] - x[2,1,1] + dif[2,0,1] >= 0
 p2: p[2,1] - 45.17576064777077 z[2,1] >= 0
 p3: p[2,1] - 58.54196199402148 z[2,1] - dcc[2,1] >= -58.54196199402148
 R79: dcc[2,1] <= 58.54196199402148
 R80: - x[1,0,0] + x[2,1,0] + dif[2,1,0] >= 0
 R81: x[1,0,0] - x[2,1,0] + dif[2,1,0] >= 0
 R82: - x[1,0,1] + x[2,1,1] + dif[2,1,1] >= 0
 R83: x[1,0,1] - x[2,1,1] + dif[2,1,1] >= 0
 p2: p[2,3] - 49.38712450810308 z[2,3] >= 0
 p3: p[2,3] - 56.622882144841 z[2,3] - dcc[2,3] >= -56.622882144841
 R86: dcc[2,3] <= 56.622882144841
 R87: x[2,1,0] - x[3,0,0] + dif[2,3,0] >= 0
 R88: - x[2,1,0] + x[3,0,0] + dif[2,3,0] >= 0
 R89: x[2,1,1] - x[3,0,1] + dif[2,3,1] >= 0
 R90: - x[2,1,1] + x[3,0,1] + dif[2,3,1] >= 0
 p2: p[2,4] - 24.25883756073502 z[2,4] >= 0
 p3: p[2,4] - 34.58077004668112 z[2,4] - dcc[2,4] >= -34.58077004668112
 R93: dcc[2,4] <= 34.58077004668112
 R94: x[2,1,0] - x[4,0,0] + dif[2,4,0] >= 0
 R95: - x[2,1,0] + x[4,0,0] + dif[2,4,0] >= 0
 R96: x[2,1,1] - x[4,0,1] + dif[2,4,1] >= 0
 R97: - x[2,1,1] + x[4,0,1] + dif[2,4,1] >= 0
 p2: p[2,5] - 62.36313845059234 z[2,5] >= 0
 p3: p[2,5] - 68.38016087778313 z[2,5] - dcc[2,5] >= -68.38016087778313
 R100: dcc[2,5] <= 68.38016087778313
 R101: x[2,1,0] - x[5,0,0] + dif[2,5,0] >= 0
 R102: - x[2,1,0] + x[5,0,0] + dif[2,5,0] >= 0
 R103: x[2,1,1] - x[5,0,1] + dif[2,5,1] >= 0
 R104: - x[2,1,1] + x[5,0,1] + dif[2,5,1] >= 0
 p2: p[3,0] - 94.95812839057376 z[3,0] >= 0
 p3: p[3,0] - 102.0258084791149 z[3,0] - dcc[3,0] >= -102.0258084791149
 R107: dcc[3,0] <= 102.0258084791149
 R108: - x[0,0,0] + x[3,1,0] + dif[3,0,0] >= 0
 R109: x[0,0,0] - x[3,1,0] + dif[3,0,0] >= 0
 R110: - x[0,0,1] + x[3,1,1] + dif[3,0,1] >= 0
 R111: x[0,0,1] - x[3,1,1] + dif[3,0,1] >= 0
 p2: p[3,1] - 52.10828651901689 z[3,1] >= 0
 p3: p[3,1] - 61.36474768398956 z[3,1] - dcc[3,1] >= -61.36474768398956
 R114: dcc[3,1] <= 61.36474768398956
 R115: - x[1,0,0] + x[3,1,0] + dif[3,1,0] >= 0
 R116: x[1,0,0] - x[3,1,0] + dif[3,1,0] >= 0
 R117: - x[1,0,1] + x[3,1,1] + dif[3,1,1] >= 0
 R118: x[1,0,1] - x[3,1,1] + dif[3,1,1] >= 0
 p2: p[3,2] - 49.38712450810308 z[3,2] >= 0
 p3: p[3,2] - 56.622882144841 z[3,2] - dcc[3,2] >= -56.622882144841
 R121: dcc[3,2] <= 56.622882144841
 R122: - x[2,0,0] + x[3,1,0] + dif[3,2,0] >= 0
 R123: x[2,0,0] - x[3,1,0] + dif[3,2,0] >= 0
 R124: - x[2,0,1] + x[3,1,1] + dif[3,2,1] >= 0
 R125: x[2,0,1] - x[3,1,1] + dif[3,2,1] >= 0
 p2: p[3,4] - 60.2697045013835 z[3,4] >= 0
 p3: p[3,4] - 66.48189680605157 z[3,4] - dcc[3,4] >= -66.48189680605157
 R128: dcc[3,4] <= 66.48189680605157
 R129: x[3,1,0] - x[4,0,0] + dif[3,4,0] >= 0
 R130: - x[3,1,0] + x[4,0,0] + dif[3,4,0] >= 0
 R131: x[3,1,1] - x[4,0,1] + dif[3,4,1] >= 0
 R132: - x[3,1,1] + x[4,0,1] + dif[3,4,1] >= 0
 p2: p[3,5] - 58.35093240711865 z[3,5] >= 0
 p3: p[3,5] - 60.2582146530314 z[3,5] - dcc[3,5] >= -60.2582146530314
 R135: dcc[3,5] <= 60.2582146530314
 R136: x[3,1,0] - x[5,0,0] + dif[3,5,0] >= 0
 R137: - x[3,1,0] + x[5,0,0] + dif[3,5,0] >= 0
 R138: x[3,1,1] - x[5,0,1] + dif[3,5,1] >= 0
 R139: - x[3,1,1] + x[5,0,1] + dif[3,5,1] >= 0
 p2: p[4,0] - 80.67934794352263 z[4,0] >= 0
 p3: p[4,0] - 90.83320288127197 z[4,0] - dcc[4,0] >= -90.83320288127197
 R142: dcc[4,0] <= 90.83320288127197
 R143: - x[0,0,0] + x[4,1,0] + dif[4,0,0] >= 0
 R144: x[0,0,0] - x[4,1,0] + dif[4,0,0] >= 0
 R145: - x[0,0,1] + x[4,1,1] + dif[4,0,1] >= 0
 R146: x[0,0,1] - x[4,1,1] + dif[4,0,1] >= 0
 p2: p[4,1] - 24.38163546578224 z[4,1] >= 0
 p3: p[4,1] - 36.72427147996311 z[4,1] - dcc[4,1] >= -36.72427147996311
 R149: dcc[4,1] <= 36.72427147996311
 R150: - x[1,0,0] + x[4,1,0] + dif[4,1,0] >= 0
 R151: x[1,0,0] - x[4,1,0] + dif[4,1,0] >= 0
 R152: - x[1,0,1] + x[4,1,1] + dif[4,1,1] >= 0
 R153: x[1,0,1] - x[4,1,1] + dif[4,1,1] >= 0
 p2: p[4,2] - 24.25883756073502 z[4,2] >= 0
 p3: p[4,2] - 34.58077004668112 z[4,2] - dcc[4,2] >= -34.58077004668112
 R156: dcc[4,2] <= 34.58077004668112
 R157: - x[2,0,0] + x[4,1,0] + dif[4,2,0] >= 0
 R158: x[2,0,0] - x[4,1,0] + dif[4,2,0] >= 0
 R159: - x[2,0,1] + x[4,1,1] + dif[4,2,1] >= 0
 R160: x[2,0,1] - x[4,1,1] + dif[4,2,1] >= 0
 p2: p[4,3] - 60.2697045013835 z[4,3] >= 0
 p3: p[4,3] - 66.48189680605157 z[4,3] - dcc[4,3] >= -66.48189680605157
 R163: dcc[4,3] <= 66.48189680605157
 R164: - x[3,0,0] + x[4,1,0] + dif[4,3,0] >= 0
 R165: x[3,0,0] - x[4,1,0] + dif[4,3,0] >= 0
 R166: - x[3,0,1] + x[4,1,1] + dif[4,3,1] >= 0
 R167: x[3,0,1] - x[4,1,1] + dif[4,3,1] >= 0
 p2: p[4,5] - 43.08114539095755 z[4,5] >= 0
 p3: p[4,5] - 48.0746024860785 z[4,5] - dcc[4,5] >= -48.0746024860785
 R170: dcc[4,5] <= 48.0746024860785
 R171: x[4,1,0] - x[5,0,0] + dif[4,5,0] >= 0
 R172: - x[4,1,0] + x[5,0,0] + dif[4,5,0] >= 0
 R173: x[4,1,1] - x[5,0,1] + dif[4,5,1] >= 0
 R174: - x[4,1,1] + x[5,0,1] + dif[4,5,1] >= 0
 p2: p[5,0] - 41.5994690734718 z[5,0] >= 0
 p3: p[5,0] - 47.44841395246582 z[5,0] - dcc[5,0] >= -47.44841395246582
 R177: dcc[5,0] <= 47.44841395246582
 R178: - x[0,0,0] + x[5,1,0] + dif[5,0,0] >= 0
 R179: x[0,0,0] - x[5,1,0] + dif[5,0,0] >= 0
 R180: - x[0,0,1] + x[5,1,1] + dif[5,0,1] >= 0
 R181: x[0,0,1] - x[5,1,1] + dif[5,0,1] >= 0
 p2: p[5,1] - 11.00610731559148 z[5,1] >= 0
 p3: p[5,1] - 19.04383327101703 z[5,1] - dcc[5,1] >= -19.04383327101703
 R184: dcc[5,1] <= 19.04383327101703
 R185: - x[1,0,0] + x[5,1,0] + dif[5,1,0] >= 0
 R186: x[1,0,0] - x[5,1,0] + dif[5,1,0] >= 0
 R187: - x[1,0,1] + x[5,1,1] + dif[5,1,1] >= 0
 R188: x[1,0,1] - x[5,1,1] + dif[5,1,1] >= 0
 p2: p[5,2] - 62.36313845059235 z[5,2] >= 0
 p3: p[5,2] - 68.38016087778313 z[5,2] - dcc[5,2] >= -68.38016087778313
 R191: dcc[5,2] <= 68.38016087778313
 R192: - x[2,0,0] + x[5,1,0] + dif[5,2,0] >= 0
 R193: x[2,0,0] - x[5,1,0] + dif[5,2,0] >= 0
 R194: - x[2,0,1] + x[5,1,1] + dif[5,2,1] >= 0
 R195: x[2,0,1] - x[5,1,1] + dif[5,2,1] >= 0
 p2: p[5,3] - 58.35093240711865 z[5,3] >= 0
 p3: p[5,3] - 60.2582146530314 z[5,3] - dcc[5,3] >= -60.2582146530314
 R198: dcc[5,3] <= 60.2582146530314
 R199: - x[3,0,0] + x[5,1,0] + dif[5,3,0] >= 0
 R200: x[3,0,0] - x[5,1,0] + dif[5,3,0] >= 0
 R201: - x[3,0,1] + x[5,1,1] + dif[5,3,1] >= 0
 R202: x[3,0,1] - x[5,1,1] + dif[5,3,1] >= 0
 p2: p[5,4] - 43.08114539095755 z[5,4] >= 0
 p3: p[5,4] - 48.0746024860785 z[5,4] - dcc[5,4] >= -48.0746024860785
 R205: dcc[5,4] <= 48.0746024860785
 R206: - x[4,0,0] + x[5,1,0] + dif[5,4,0] >= 0
 R207: x[4,0,0] - x[5,1,0] + dif[5,4,0] >= 0
 R208: - x[4,0,1] + x[5,1,1] + dif[5,4,1] >= 0
 R209: x[4,0,1] - x[5,1,1] + dif[5,4,1] >= 0
 R210: z[0,1] + z[0,2] + z[0,3] + z[0,4] + z[0,5] = 1
 R211: z[1,0] + z[1,2] + z[1,3] + z[1,4] + z[1,5] = 1
 R212: z[2,0] + z[2,1] + z[2,3] + z[2,4] + z[2,5] = 1
 R213: z[3,0] + z[3,1] + z[3,2] + z[3,4] + z[3,5] = 1
 R214: z[4,0] + z[4,1] + z[4,2] + z[4,3] + z[4,5] = 1
 R215: z[5,0] + z[5,1] + z[5,2] + z[5,3] + z[5,4] = 1
 R216: z[1,0] + z[2,0] + z[3,0] + z[4,0] + z[5,0] = 1
 R217: z[0,1] + z[2,1] + z[3,1] + z[4,1] + z[5,1] = 1
 R218: z[0,2] + z[1,2] + z[3,2] + z[4,2] + z[5,2] = 1
 R219: z[0,3] + z[1,3] + z[2,3] + z[4,3] + z[5,3] = 1
 R220: z[0,4] + z[1,4] + z[2,4] + z[3,4] + z[5,4] = 1
 R221: z[0,5] + z[1,5] + z[2,5] + z[3,5] + z[4,5] = 1
 rest7: z[0,1] + z[1,0] <= 1
 rest7: z[0,2] + z[2,0] <= 1
 rest7: z[0,3] + z[3,0] <= 1
 rest7: z[0,4] + z[4,0] <= 1
 rest7: z[0,5] + z[5,0] <= 1
 rest7: z[0,1] + z[1,0] <= 1
 rest7: z[1,2] + z[2,1] <= 1
 rest7: z[1,3] + z[3,1] <= 1
 rest7: z[1,4] + z[4,1] <= 1
 rest7: z[1,5] + z[5,1] <= 1
 rest7: z[0,2] + z[2,0] <= 1
 rest7: z[1,2] + z[2,1] <= 1
 rest7: z[2,3] + z[3,2] <= 1
 rest7: z[2,4] + z[4,2] <= 1
 rest7: z[2,5] + z[5,2] <= 1
 rest7: z[0,3] + z[3,0] <= 1
 rest7: z[1,3] + z[3,1] <= 1
 rest7: z[2,3] + z[3,2] <= 1
 rest7: z[3,4] + z[4,3] <= 1
 rest7: z[3,5] + z[5,3] <= 1
 rest7: z[0,4] + z[4,0] <= 1
 rest7: z[1,4] + z[4,1] <= 1
 rest7: z[2,4] + z[4,2] <= 1
 rest7: z[3,4] + z[4,3] <= 1
 rest7: z[4,5] + z[5,4] <= 1
 rest7: z[0,5] + z[5,0] <= 1
 rest7: z[1,5] + z[5,1] <= 1
 rest7: z[2,5] + z[5,2] <= 1
 rest7: z[3,5] + z[5,3] <= 1
 rest7: z[4,5] + z[5,4] <= 1
 R252: 6 z[1,2] + sc[1] - sc[2] <= 5
 R253: 6 z[1,3] + sc[1] - sc[3] <= 5
 R254: 6 z[1,4] + sc[1] - sc[4] <= 5
 R255: 6 z[1,5] + sc[1] - sc[5] <= 5
 R256: 6 z[2,1] - sc[1] + sc[2] <= 5
 R257: 6 z[2,3] + sc[2] - sc[3] <= 5
 R258: 6 z[2,4] + sc[2] - sc[4] <= 5
 R259: 6 z[2,5] + sc[2] - sc[5] <= 5
 R260: 6 z[3,1] - sc[1] + sc[3] <= 5
 R261: 6 z[3,2] - sc[2] + sc[3] <= 5
 R262: 6 z[3,4] + sc[3] - sc[4] <= 5
 R263: 6 z[3,5] + sc[3] - sc[5] <= 5
 R264: 6 z[4,1] - sc[1] + sc[4] <= 5
 R265: 6 z[4,2] - sc[2] + sc[4] <= 5
 R266: 6 z[4,3] - sc[3] + sc[4] <= 5
 R267: 6 z[4,5] + sc[4] - sc[5] <= 5
 R268: 6 z[5,1] - sc[1] + sc[5] <= 5
 R269: 6 z[5,2] - sc[2] + sc[5] <= 5
 R270: 6 z[5,3] - sc[3] + sc[5] <= 5
 R271: 6 z[5,4] - sc[4] + sc[5] <= 5
 rest10: sc[0] = 0
 rest11: sc[1] >= 1
 rest11: sc[2] >= 1
 rest11: sc[3] >= 1
 rest11: sc[4] >= 1
 rest11: sc[5] >= 1
 R278: dc[0] <= 5.504671360811208
 R279: - x[0,0,0] + x[0,1,0] + difc[0,0] >= 0
 R280: x[0,0,0] - x[0,1,0] + difc[0,0] >= 0
 R281: - x[0,0,1] + x[0,1,1] + difc[0,1] >= 0
 R282: x[0,0,1] - x[0,1,1] + difc[0,1] >= 0
 R283: dc[1] <= 7.693452437242739
 R284: - x[1,0,0] + x[1,1,0] + difc[1,0] >= 0
 R285: x[1,0,0] - x[1,1,0] + difc[1,0] >= 0
 R286: - x[1,0,1] + x[1,1,1] + difc[1,1] >= 0
 R287: x[1,0,1] - x[1,1,1] + difc[1,1] >= 0
 R288: dc[2] <= 5.672748909007974
 R289: - x[2,0,0] + x[2,1,0] + difc[2,0] >= 0
 R290: x[2,0,0] - x[2,1,0] + difc[2,0] >= 0
 R291: - x[2,0,1] + x[2,1,1] + difc[2,1] >= 0
 R292: x[2,0,1] - x[2,1,1] + difc[2,1] >= 0
 R293: dc[3] <= 1.563008727729931
 R294: - x[3,0,0] + x[3,1,0] + difc[3,0] >= 0
 R295: x[3,0,0] - x[3,1,0] + difc[3,0] >= 0
 R296: - x[3,0,1] + x[3,1,1] + difc[3,1] >= 0
 R297: x[3,0,1] - x[3,1,1] + difc[3,1] >= 0
 R298: dc[4] <= 4.649183576938129
 R299: - x[4,0,0] + x[4,1,0] + difc[4,0] >= 0
 R300: x[4,0,0] - x[4,1,0] + difc[4,0] >= 0
 R301: - x[4,0,1] + x[4,1,1] + difc[4,1] >= 0
 R302: x[4,0,1] - x[4,1,1] + difc[4,1] >= 0
 R303: dc[5] <= 0.3442735181828139
 R304: - x[5,0,0] + x[5,1,0] + difc[5,0] >= 0
 R305: x[5,0,0] - x[5,1,0] + difc[5,0] >= 0
 R306: - x[5,0,1] + x[5,1,1] + difc[5,1] >= 0
 R307: x[5,0,1] - x[5,1,1] + difc[5,1] >= 0
 qc0: [ - dcc[0,1] ^2 + dif[0,1,0] ^2 + dif[0,1,1] ^2 ] <= 0
 qc1: [ - dcc[0,2] ^2 + dif[0,2,0] ^2 + dif[0,2,1] ^2 ] <= 0
 qc2: [ - dcc[0,3] ^2 + dif[0,3,0] ^2 + dif[0,3,1] ^2 ] <= 0
 qc3: [ - dcc[0,4] ^2 + dif[0,4,0] ^2 + dif[0,4,1] ^2 ] <= 0
 qc4: [ - dcc[0,5] ^2 + dif[0,5,0] ^2 + dif[0,5,1] ^2 ] <= 0
 qc5: [ - dcc[1,0] ^2 + dif[1,0,0] ^2 + dif[1,0,1] ^2 ] <= 0
 qc6: [ - dcc[1,2] ^2 + dif[1,2,0] ^2 + dif[1,2,1] ^2 ] <= 0
 qc7: [ - dcc[1,3] ^2 + dif[1,3,0] ^2 + dif[1,3,1] ^2 ] <= 0
 qc8: [ - dcc[1,4] ^2 + dif[1,4,0] ^2 + dif[1,4,1] ^2 ] <= 0
 qc9: [ - dcc[1,5] ^2 + dif[1,5,0] ^2 + dif[1,5,1] ^2 ] <= 0
 qc10: [ - dcc[2,0] ^2 + dif[2,0,0] ^2 + dif[2,0,1] ^2 ] <= 0
 qc11: [ - dcc[2,1] ^2 + dif[2,1,0] ^2 + dif[2,1,1] ^2 ] <= 0
 qc12: [ - dcc[2,3] ^2 + dif[2,3,0] ^2 + dif[2,3,1] ^2 ] <= 0
 qc13: [ - dcc[2,4] ^2 + dif[2,4,0] ^2 + dif[2,4,1] ^2 ] <= 0
 qc14: [ - dcc[2,5] ^2 + dif[2,5,0] ^2 + dif[2,5,1] ^2 ] <= 0
 qc15: [ - dcc[3,0] ^2 + dif[3,0,0] ^2 + dif[3,0,1] ^2 ] <= 0
 qc16: [ - dcc[3,1] ^2 + dif[3,1,0] ^2 + dif[3,1,1] ^2 ] <= 0
 qc17: [ - dcc[3,2] ^2 + dif[3,2,0] ^2 + dif[3,2,1] ^2 ] <= 0
 qc18: [ - dcc[3,4] ^2 + dif[3,4,0] ^2 + dif[3,4,1] ^2 ] <= 0
 qc19: [ - dcc[3,5] ^2 + dif[3,5,0] ^2 + dif[3,5,1] ^2 ] <= 0
 qc20: [ - dcc[4,0] ^2 + dif[4,0,0] ^2 + dif[4,0,1] ^2 ] <= 0
 qc21: [ - dcc[4,1] ^2 + dif[4,1,0] ^2 + dif[4,1,1] ^2 ] <= 0
 qc22: [ - dcc[4,2] ^2 + dif[4,2,0] ^2 + dif[4,2,1] ^2 ] <= 0
 qc23: [ - dcc[4,3] ^2 + dif[4,3,0] ^2 + dif[4,3,1] ^2 ] <= 0
 qc24: [ - dcc[4,5] ^2 + dif[4,5,0] ^2 + dif[4,5,1] ^2 ] <= 0
 qc25: [ - dcc[5,0] ^2 + dif[5,0,0] ^2 + dif[5,0,1] ^2 ] <= 0
 qc26: [ - dcc[5,1] ^2 + dif[5,1,0] ^2 + dif[5,1,1] ^2 ] <= 0
 qc27: [ - dcc[5,2] ^2 + dif[5,2,0] ^2 + dif[5,2,1] ^2 ] <= 0
 qc28: [ - dcc[5,3] ^2 + dif[5,3,0] ^2 + dif[5,3,1] ^2 ] <= 0
 qc29: [ - dcc[5,4] ^2 + dif[5,4,0] ^2 + dif[5,4,1] ^2 ] <= 0
 inC1: - 173.8551744983408 x[0,0,0] - 7.278428750282053 x[0,0,1] + [
   x[0,0,0] ^2 + x[0,0,1] ^2 ] <= -7562.073954532734
 inC1: - 173.8551744983408 x[0,1,0] - 7.278428750282053 x[0,1,1] + [
   x[0,1,0] ^2 + x[0,1,1] ^2 ] <= -7562.073954532734
 qc32: [ - dc[0] ^2 + difc[0,0] ^2 + difc[0,1] ^2 ] <= 0
 inC1: - 88.38222503362609 x[1,0,0] - 83.94368023690595 x[1,0,1] + [
   x[1,0,0] ^2 + x[1,0,1] ^2 ] <= -3699.69248580158
 inC1: - 88.38222503362609 x[1,1,0] - 83.94368023690595 x[1,1,1] + [
   x[1,1,0] ^2 + x[1,1,1] ^2 ] <= -3699.69248580158
 qc35: [ - dc[1] ^2 + difc[1,0] ^2 + difc[1,1] ^2 ] <= 0
 inC1: - 14.26470039866167 x[2,0,0] - 156.4968230495036 x[2,0,1] + [
   x[2,0,0] ^2 + x[2,0,1] ^2 ] <= -6165.639305466641
 inC1: - 14.26470039866167 x[2,1,0] - 156.4968230495036 x[2,1,1] + [
   x[2,1,0] ^2 + x[2,1,1] ^2 ] <= -6165.639305466641
 qc38: [ - dc[2] ^2 + difc[2,0] ^2 + difc[2,1] ^2 ] <= 0
 inC1: - 113.1600213510271 x[3,0,0] - 194.6784548151298 x[3,0,1] + [
   x[3,0,0] ^2 + x[3,0,1] ^2 ] <= -12675.61205127212
 inC1: - 113.1600213510271 x[3,1,0] - 194.6784548151298 x[3,1,1] + [
   x[3,1,0] ^2 + x[3,1,1] ^2 ] <= -12675.61205127212
 qc41: [ - dc[3] ^2 + difc[3,0] ^2 + difc[3,1] ^2 ] <= 0
 inC1: - 29.32030587706877 x[4,0,0] - 99.61599880201871 x[4,0,1] + [
   x[4,0,0] ^2 + x[4,0,1] ^2 ] <= -2690.353161529149
 inC1: - 29.32030587706877 x[4,1,0] - 99.61599880201871 x[4,1,1] + [
   x[4,1,0] ^2 + x[4,1,1] ^2 ] <= -2690.353161529149
 qc44: [ - dc[4] ^2 + difc[4,0] ^2 + difc[4,1] ^2 ] <= 0
 inC1: - 117.4026107352673 x[5,0,0] - 76.14520968258049 x[5,0,1] + [
   x[5,0,0] ^2 + x[5,0,1] ^2 ] <= -4895.336860201381
 inC1: - 117.4026107352673 x[5,1,0] - 76.14520968258049 x[5,1,1] + [
   x[5,1,0] ^2 + x[5,1,1] ^2 ] <= -4895.336860201381
 qc47: [ - dc[5] ^2 + difc[5,0] ^2 + difc[5,1] ^2 ] <= 0
Bounds
 sc[0] <= 5
 sc[1] <= 5
 sc[2] <= 5
 sc[3] <= 5
 sc[4] <= 5
 sc[5] <= 5
Binaries
 z[0,1] z[0,2] z[0,3] z[0,4] z[0,5] z[1,0] z[1,2] z[1,3] z[1,4] z[1,5]
 z[2,0] z[2,1] z[2,3] z[2,4] z[2,5] z[3,0] z[3,1] z[3,2] z[3,4] z[3,5]
 z[4,0] z[4,1] z[4,2] z[4,3] z[4,5] z[5,0] z[5,1] z[5,2] z[5,3] z[5,4]
End
